PARAMETER_FILE = even/even_uncomplete_graph_new/de/par/random152.par
PROBLEM_FILE = even/even_uncomplete_graph_new/de/mat/random152.tsp
Successes/Runs = 0/10
Cost.min = 972, Cost.avg = 972.00, Cost.max = 972
Gap.min = 0.0000%, Gap.avg = 0.0000%, Gap.max = 0.0000%
Trials.min = 1000, Trials.avg = 1000.0, Trials.max = 1000
Time.min = 0.42 sec., Time.avg = 0.63 sec., Time.max = 0.94 sec.
Time.total = 6.41 sec.
